4 5
98 90 39 44 
0 82 72 100 90 19 9 37 27 2 64 6 38 83 37 52 94 63 2 47 61 1
1 88 78 65 55 41 31 26 16 32 45 82 33 38 37 9 26 7 90 79 98 4
2 42 32 77 67 19 9 54 44 77 79 38 4 78 3 91 54 37 78 35 28 4
3 101 91 17 7 26 16 42 32 74 95 44 4 52 34 80 27 31 33 90 79 3
4 108 98 79 69 49 39 20 10 32 45 79 52 41 99 23 58 27 66 41 71 1
